% Auto-generated by scripts/generate_dzn.py
% problem_type   = regex
% instance       = regex_58
% source_json    = instances_json/0_low_blowup/regex_58.json
% blowup         = 1.64
% representation = DFA

mode = 0;

var_count = 26;
Q = 41;
S = 3;
q0 = 1;
F = {29, 30, 31, 32, 33, 34, 35, 36, 37, 38, 39, 40, 41};
d_dfa = array2d(1..41, 1..3, [
  1, 2, 1,
  1, 3, 1,
  1, 3, 4,
  5, 6, 5,
  7, 8, 7,
  7, 9, 7,
  10, 11, 10,
  10, 12, 10,
  10, 12, 13,
  14, 15, 14,
  14, 16, 14,
  14, 16, 17,
  18, 19, 18,
  20, 21, 20,
  20, 22, 20,
  20, 22, 23,
  24, 25, 24,
  26, 27, 26,
  26, 28, 26,
  29, 30, 29,
  29, 31, 29,
  29, 31, 32,
  33, 34, 33,
  35, 36, 35,
  35, 37, 35,
  38, 39, 38,
  38, 40, 38,
  38, 40, 41,
  1, 2, 1,
  1, 3, 1,
  1, 3, 4,
  5, 6, 5,
  7, 8, 7,
  7, 9, 7,
  10, 11, 10,
  10, 12, 10,
  10, 12, 13,
  14, 15, 14,
  14, 16, 14,
  14, 16, 17,
  18, 19, 18
]);
d_nfa = array2d(1..41, 1..3, [
  {}, {}, {},
  {}, {}, {},
  {}, {}, {},
  {}, {}, {},
  {}, {}, {},
  {}, {}, {},
  {}, {}, {},
  {}, {}, {},
  {}, {}, {},
  {}, {}, {},
  {}, {}, {},
  {}, {}, {},
  {}, {}, {},
  {}, {}, {},
  {}, {}, {},
  {}, {}, {},
  {}, {}, {},
  {}, {}, {},
  {}, {}, {},
  {}, {}, {},
  {}, {}, {},
  {}, {}, {},
  {}, {}, {},
  {}, {}, {},
  {}, {}, {},
  {}, {}, {},
  {}, {}, {},
  {}, {}, {},
  {}, {}, {},
  {}, {}, {},
  {}, {}, {},
  {}, {}, {},
  {}, {}, {},
  {}, {}, {},
  {}, {}, {},
  {}, {}, {},
  {}, {}, {},
  {}, {}, {},
  {}, {}, {},
  {}, {}, {},
  {}, {}, {}
]);
